L=18;
no=4;
njo=[6,7,7,7];
djo=[5,6,6,7];
trab=[2,3,2,18,3,12,2,6,2,2,2,4,6,3,2,2,2,6,3,2,12,6,6,6];
nprec=9;
prec=[| 1, 7,
      | 3, 11,
      | 4, 12,
      | 7, 17,
      | 13, 20,
      | 14, 22,
      | 15, 24,
      | 16, 25,
      | 19, 26 |];


%%%%%%%%%%%%%%%%%%%%%%%%%%%%%%%%%%%%%%%%%%%%%%%%%%%%%%%%%%%%%%%%%%%%%%
%  4
%
%  6   1   6   5  28
%  2   3   2  18   3 
%  1   1   1   0   1
%      2   1   7
%  1   2   2   0   0
%  1   3   3   0   1
%      2   5  11
%  1   4   4   0   1
%      2   6  12
%  1   5   5   0   0
%  1   6   6   0   0
%
%  7   7  13   6  26
% 12   2   6   2   2   2 
%  2   1   7   1   1
%      1   1   1
%      3   4  17
%  2   2   8   0   0
%  2   3   9   0   0
%  2   4  10   0   0
%  2   5  11   1   0
%      1   3   3
%  2   6  12   1   0
%      1   4   4
%  2   7  13   0   1
%      3   7  20
%
%  7  14  20   6  19
%  4   6   3   2   2   2 
%  3   1  14   0   1
%      4   2  22
%  3   2  15   0   1
%      4   4  24
%  3   3  16   0   1
%      4   5  25
%  3   4  17   1   0
%      2   1   7
%  3   5  18   0   0
%  3   6  19   0   1
%      4   6  26
%  3   7  20   1   0
%      2   7  13
%
%  7  21  27   7  41
%  6   3   2  12   6   6   6 
%  4   1  21   0   0
%  4   2  22   1   0
%      3   1  14
%  4   3  23   0   0
%  4   4  24   1   0
%      3   2  15
%  4   5  25   1   0
%      3   3  16
%  4   6  26   1   0
%      3   6  19
%  4   7  27   0   0
%
% 53
